          25
          40
           1          11           3
           2          13           3
           3           9           2
           4           7           2
           5           9           3
           6           7           3
           7          11           2
           8          13           2
           9          11           4
          10          13           4
          11           3           5
          12          11           2
          13           2           2
          14          11           3
          15           2           3
          16           5           4
          17           6           4
          18          12           2
          19           1           2
          20           3           5
          21          13           5
          22          12           4
          23           1           4
          24           5           2
          25           6           2
